RobustCbss/GLKH-1.1/TMP/mtspf.pid3343.atsp
NAME : mtspf.pid3343.gtsp
TYPE : ATSP
DIMENSION : 45
EDGE_WEIGHT_TYPE : EXPLICIT
EDGE_WEIGHT_FORMAT : FULL_MATRIX
EDGE_WEIGHT_SECTION
999999 5368709 5368709 5368709 5368709 5368732 5368731 5368730 5368731 5368725 5368724 5368725 5368726 5368720 5368719 5368720 5368721 5368742 5368741 5368742 5368743 5368746 5368745 5368744 5368745 5368731 5368730 5368731 5368732 5368719 5368718 5368717 5368718 5368738 5368737 5368738 5368739 5368723 5368722 5368721 5368722 5368736 5368735 5368736 5368737 
5368709 999999 5368709 5368709 5368709 5368719 5368720 5368719 5368718 5368724 5368725 5368726 5368725 5368727 5368728 5368727 5368726 5368741 5368742 5368743 5368742 5368729 5368728 5368729 5368730 5368730 5368731 5368732 5368731 5368724 5368725 5368724 5368723 5368737 5368738 5368739 5368738 5368720 5368721 5368720 5368719 5368735 5368736 5368737 5368736 
5368709 5368709 999999 5368709 5368709 5368721 5368720 5368721 5368722 5368742 5368741 5368742 5368743 5368737 5368736 5368737 5368738 5368759 5368758 5368759 5368760 5368747 5368746 5368747 5368748 5368748 5368747 5368748 5368749 5368722 5368721 5368722 5368723 5368755 5368754 5368755 5368756 5368720 5368719 5368720 5368721 5368753 5368752 5368753 5368754 
5368709 5368709 5368709 999999 5368709 5368738 5368739 5368738 5368737 5368745 5368746 5368745 5368744 5368748 5368749 5368748 5368747 5368730 5368731 5368730 5368729 5368714 5368715 5368714 5368713 5368747 5368748 5368747 5368746 5368745 5368746 5368745 5368744 5368752 5368753 5368752 5368751 5368739 5368740 5368739 5368738 5368740 5368741 5368740 5368739 
5368709 5368709 5368709 5368709 999999 5368761 5368762 5368761 5368760 5368740 5368741 5368740 5368739 5368745 5368746 5368745 5368744 5368723 5368724 5368723 5368722 5368737 5368736 5368737 5368738 5368734 5368735 5368734 5368733 5368760 5368761 5368760 5368759 5368727 5368728 5368727 5368726 5368762 5368763 5368762 5368761 5368729 5368730 5368729 5368728 
5368709 5368709 5368709 5368709 5368709 999999 0 10737418 10737418 5368731 5368732 5368733 5368732 5368732 5368733 5368732 5368731 5368748 5368749 5368750 5368749 5368736 5368737 5368738 5368737 5368737 5368738 5368739 5368738 5368729 5368730 5368729 5368728 5368744 5368745 5368746 5368745 5368721 5368722 5368721 5368720 5368742 5368743 5368744 5368743 
5368709 5368709 5368709 5368709 5368709 10737418 999999 0 10737418 5368732 5368733 5368734 5368733 5368731 5368732 5368733 5368732 5368749 5368750 5368751 5368750 5368737 5368738 5368739 5368738 5368738 5368739 5368740 5368739 5368728 5368729 5368730 5368729 5368745 5368746 5368747 5368746 5368720 5368721 5368722 5368721 5368743 5368744 5368745 5368744 
5368709 5368709 5368709 5368709 5368709 10737418 10737418 999999 0 5368733 5368732 5368733 5368734 5368730 5368731 5368732 5368731 5368750 5368749 5368750 5368751 5368738 5368737 5368738 5368739 5368739 5368738 5368739 5368740 5368727 5368728 5368729 5368728 5368746 5368745 5368746 5368747 5368719 5368720 5368721 5368720 5368744 5368743 5368744 5368745 
5368709 5368709 5368709 5368709 5368709 0 10737418 10737418 999999 5368732 5368731 5368732 5368733 5368731 5368732 5368731 5368730 5368749 5368748 5368749 5368750 5368737 5368736 5368737 5368738 5368738 5368737 5368738 5368739 5368728 5368729 5368728 5368727 5368745 5368744 5368745 5368746 5368720 5368721 5368720 5368719 5368743 5368742 5368743 5368744 
5368709 5368709 5368709 5368709 5368709 5368733 5368734 5368733 5368732 999999 0 10737418 10737418 5368717 5368718 5368717 5368716 5368727 5368728 5368729 5368728 5368743 5368742 5368741 5368742 5368716 5368717 5368718 5368717 5368732 5368733 5368732 5368731 5368723 5368724 5368725 5368724 5368734 5368735 5368734 5368733 5368721 5368722 5368723 5368722 
5368709 5368709 5368709 5368709 5368709 5368732 5368733 5368732 5368731 10737418 999999 0 10737418 5368716 5368717 5368716 5368715 5368728 5368729 5368730 5368729 5368742 5368741 5368742 5368743 5368717 5368718 5368719 5368718 5368731 5368732 5368731 5368730 5368724 5368725 5368726 5368725 5368733 5368734 5368733 5368732 5368722 5368723 5368724 5368723 
5368709 5368709 5368709 5368709 5368709 5368733 5368732 5368731 5368732 10737418 10737418 999999 0 5368717 5368716 5368715 5368716 5368729 5368728 5368729 5368730 5368743 5368742 5368743 5368744 5368718 5368717 5368718 5368719 5368732 5368731 5368730 5368731 5368725 5368724 5368725 5368726 5368734 5368733 5368732 5368733 5368723 5368722 5368723 5368724 
5368709 5368709 5368709 5368709 5368709 5368734 5368733 5368732 5368733 0 10737418 10737418 999999 5368718 5368717 5368716 5368717 5368728 5368727 5368728 5368729 5368744 5368743 5368742 5368743 5368717 5368716 5368717 5368718 5368733 5368732 5368731 5368732 5368724 5368723 5368724 5368725 5368735 5368734 5368733 5368734 5368722 5368721 5368722 5368723 
5368709 5368709 5368709 5368709 5368709 5368732 5368731 5368730 5368731 5368715 5368716 5368717 5368716 999999 0 10737418 10737418 5368732 5368733 5368734 5368733 5368746 5368745 5368744 5368745 5368721 5368722 5368723 5368722 5368727 5368728 5368727 5368726 5368728 5368729 5368730 5368729 5368729 5368730 5368729 5368728 5368726 5368727 5368728 5368727 
5368709 5368709 5368709 5368709 5368709 5368731 5368730 5368731 5368732 5368716 5368717 5368718 5368717 10737418 999999 0 10737418 5368733 5368734 5368735 5368734 5368745 5368744 5368745 5368746 5368722 5368723 5368724 5368723 5368726 5368727 5368726 5368725 5368729 5368730 5368731 5368730 5368728 5368729 5368728 5368727 5368727 5368728 5368729 5368728 
5368709 5368709 5368709 5368709 5368709 5368732 5368731 5368732 5368733 5368717 5368716 5368717 5368718 10737418 10737418 999999 0 5368734 5368733 5368734 5368735 5368746 5368745 5368746 5368747 5368723 5368722 5368723 5368724 5368727 5368726 5368725 5368726 5368730 5368729 5368730 5368731 5368729 5368728 5368727 5368728 5368728 5368727 5368728 5368729 
5368709 5368709 5368709 5368709 5368709 5368733 5368732 5368731 5368732 5368716 5368715 5368716 5368717 0 10737418 10737418 999999 5368733 5368732 5368733 5368734 5368747 5368746 5368745 5368746 5368722 5368721 5368722 5368723 5368728 5368727 5368726 5368727 5368729 5368728 5368729 5368730 5368730 5368729 5368728 5368729 5368727 5368726 5368727 5368728 
5368709 5368709 5368709 5368709 5368709 5368750 5368751 5368750 5368749 5368729 5368730 5368729 5368728 5368734 5368735 5368734 5368733 999999 0 10737418 10737418 5368728 5368727 5368726 5368727 5368729 5368730 5368729 5368728 5368749 5368750 5368749 5368748 5368734 5368735 5368734 5368733 5368751 5368752 5368751 5368750 5368722 5368723 5368722 5368721 
5368709 5368709 5368709 5368709 5368709 5368749 5368750 5368749 5368748 5368728 5368729 5368728 5368727 5368733 5368734 5368733 5368732 10737418 999999 0 10737418 5368727 5368726 5368727 5368728 5368728 5368729 5368730 5368729 5368748 5368749 5368748 5368747 5368733 5368734 5368735 5368734 5368750 5368751 5368750 5368749 5368721 5368722 5368723 5368722 
5368709 5368709 5368709 5368709 5368709 5368750 5368749 5368748 5368749 5368729 5368728 5368727 5368728 5368734 5368733 5368732 5368733 10737418 10737418 999999 0 5368728 5368727 5368728 5368729 5368727 5368728 5368729 5368728 5368749 5368748 5368747 5368748 5368732 5368733 5368734 5368733 5368751 5368750 5368749 5368750 5368720 5368721 5368722 5368721 
5368709 5368709 5368709 5368709 5368709 5368751 5368750 5368749 5368750 5368730 5368729 5368728 5368729 5368735 5368734 5368733 5368734 0 10737418 10737418 999999 5368729 5368728 5368727 5368728 5368728 5368729 5368728 5368727 5368750 5368749 5368748 5368749 5368733 5368734 5368733 5368732 5368752 5368751 5368750 5368751 5368721 5368722 5368721 5368720 
5368709 5368709 5368709 5368709 5368709 5368738 5368739 5368738 5368737 5368743 5368744 5368743 5368742 5368746 5368747 5368746 5368745 5368728 5368729 5368728 5368727 999999 0 10737418 10737418 5368745 5368746 5368745 5368744 5368743 5368744 5368743 5368742 5368750 5368751 5368750 5368749 5368739 5368740 5368739 5368738 5368738 5368739 5368738 5368737 
5368709 5368709 5368709 5368709 5368709 5368737 5368738 5368737 5368736 5368742 5368743 5368744 5368743 5368745 5368746 5368747 5368746 5368727 5368728 5368729 5368728 10737418 999999 0 10737418 5368744 5368745 5368746 5368745 5368742 5368743 5368744 5368743 5368749 5368750 5368751 5368750 5368738 5368739 5368738 5368737 5368737 5368738 5368739 5368738 
5368709 5368709 5368709 5368709 5368709 5368738 5368737 5368736 5368737 5368741 5368742 5368743 5368742 5368744 5368745 5368746 5368745 5368726 5368727 5368728 5368727 10737418 10737418 999999 0 5368743 5368744 5368745 5368744 5368741 5368742 5368743 5368742 5368748 5368749 5368750 5368749 5368739 5368738 5368737 5368738 5368736 5368737 5368738 5368737 
5368709 5368709 5368709 5368709 5368709 5368739 5368738 5368737 5368738 5368742 5368743 5368742 5368741 5368745 5368746 5368745 5368744 5368727 5368728 5368727 5368726 0 10737418 10737418 999999 5368744 5368745 5368744 5368743 5368742 5368743 5368742 5368741 5368749 5368750 5368749 5368748 5368740 5368739 5368738 5368739 5368737 5368738 5368737 5368736 
5368709 5368709 5368709 5368709 5368709 5368739 5368740 5368739 5368738 5368718 5368719 5368718 5368717 5368723 5368724 5368723 5368722 5368729 5368728 5368727 5368728 5368745 5368744 5368743 5368744 999999 0 10737418 10737418 5368738 5368739 5368738 5368737 5368717 5368718 5368719 5368718 5368740 5368741 5368740 5368739 5368719 5368718 5368717 5368718 
5368709 5368709 5368709 5368709 5368709 5368738 5368739 5368738 5368737 5368717 5368718 5368717 5368716 5368722 5368723 5368722 5368721 5368728 5368727 5368728 5368729 5368744 5368743 5368744 5368745 10737418 999999 0 10737418 5368737 5368738 5368737 5368736 5368718 5368719 5368720 5368719 5368739 5368740 5368739 5368738 5368718 5368717 5368718 5368719 
5368709 5368709 5368709 5368709 5368709 5368739 5368738 5368737 5368738 5368718 5368717 5368716 5368717 5368723 5368722 5368721 5368722 5368729 5368728 5368729 5368730 5368745 5368744 5368745 5368746 10737418 10737418 999999 0 5368738 5368737 5368736 5368737 5368719 5368718 5368719 5368720 5368740 5368739 5368738 5368739 5368719 5368718 5368719 5368720 
5368709 5368709 5368709 5368709 5368709 5368740 5368739 5368738 5368739 5368719 5368718 5368717 5368718 5368724 5368723 5368722 5368723 5368730 5368729 5368728 5368729 5368746 5368745 5368744 5368745 0 10737418 10737418 999999 5368739 5368738 5368737 5368738 5368718 5368717 5368718 5368719 5368741 5368740 5368739 5368740 5368720 5368719 5368718 5368719 
5368709 5368709 5368709 5368709 5368709 5368729 5368728 5368727 5368728 5368730 5368731 5368732 5368731 5368725 5368726 5368727 5368726 5368747 5368748 5368749 5368748 5368743 5368742 5368741 5368742 5368736 5368737 5368738 5368737 999999 0 10737418 10737418 5368743 5368744 5368745 5368744 5368720 5368719 5368718 5368719 5368741 5368742 5368743 5368742 
5368709 5368709 5368709 5368709 5368709 5368728 5368727 5368728 5368729 5368731 5368732 5368733 5368732 5368726 5368727 5368728 5368727 5368748 5368749 5368750 5368749 5368742 5368741 5368742 5368743 5368737 5368738 5368739 5368738 10737418 999999 0 10737418 5368744 5368745 5368746 5368745 5368719 5368718 5368719 5368720 5368742 5368743 5368744 5368743 
5368709 5368709 5368709 5368709 5368709 5368729 5368728 5368729 5368730 5368732 5368731 5368732 5368733 5368727 5368726 5368727 5368728 5368749 5368748 5368749 5368750 5368743 5368742 5368743 5368744 5368738 5368737 5368738 5368739 10737418 10737418 999999 0 5368745 5368744 5368745 5368746 5368720 5368719 5368720 5368721 5368743 5368742 5368743 5368744 
5368709 5368709 5368709 5368709 5368709 5368730 5368729 5368728 5368729 5368731 5368730 5368731 5368732 5368726 5368725 5368726 5368727 5368748 5368747 5368748 5368749 5368744 5368743 5368742 5368743 5368737 5368736 5368737 5368738 0 10737418 10737418 999999 5368744 5368743 5368744 5368745 5368721 5368720 5368719 5368720 5368742 5368741 5368742 5368743 
5368709 5368709 5368709 5368709 5368709 5368746 5368747 5368746 5368745 5368725 5368726 5368725 5368724 5368730 5368731 5368730 5368729 5368734 5368733 5368732 5368733 5368750 5368749 5368748 5368749 5368719 5368720 5368719 5368718 5368745 5368746 5368745 5368744 999999 0 10737418 10737418 5368747 5368748 5368747 5368746 5368724 5368723 5368722 5368723 
5368709 5368709 5368709 5368709 5368709 5368745 5368746 5368745 5368744 5368724 5368725 5368724 5368723 5368729 5368730 5368729 5368728 5368733 5368732 5368733 5368734 5368749 5368748 5368749 5368750 5368718 5368719 5368718 5368717 5368744 5368745 5368744 5368743 10737418 999999 0 10737418 5368746 5368747 5368746 5368745 5368723 5368722 5368723 5368724 
5368709 5368709 5368709 5368709 5368709 5368746 5368745 5368744 5368745 5368725 5368724 5368723 5368724 5368730 5368729 5368728 5368729 5368734 5368733 5368734 5368735 5368750 5368749 5368750 5368751 5368719 5368718 5368717 5368718 5368745 5368744 5368743 5368744 10737418 10737418 999999 0 5368747 5368746 5368745 5368746 5368724 5368723 5368724 5368725 
5368709 5368709 5368709 5368709 5368709 5368747 5368746 5368745 5368746 5368726 5368725 5368724 5368725 5368731 5368730 5368729 5368730 5368735 5368734 5368733 5368734 5368751 5368750 5368749 5368750 5368720 5368719 5368718 5368719 5368746 5368745 5368744 5368745 0 10737418 10737418 999999 5368748 5368747 5368746 5368747 5368725 5368724 5368723 5368724 
5368709 5368709 5368709 5368709 5368709 5368721 5368720 5368719 5368720 5368732 5368733 5368734 5368733 5368727 5368728 5368729 5368728 5368749 5368750 5368751 5368750 5368737 5368738 5368739 5368738 5368738 5368739 5368740 5368739 5368720 5368721 5368720 5368719 5368745 5368746 5368747 5368746 999999 0 10737418 10737418 5368743 5368744 5368745 5368744 
5368709 5368709 5368709 5368709 5368709 5368720 5368719 5368720 5368721 5368733 5368734 5368735 5368734 5368728 5368729 5368730 5368729 5368750 5368751 5368752 5368751 5368738 5368739 5368740 5368739 5368739 5368740 5368741 5368740 5368719 5368720 5368721 5368720 5368746 5368747 5368748 5368747 10737418 999999 0 10737418 5368744 5368745 5368746 5368745 
5368709 5368709 5368709 5368709 5368709 5368721 5368720 5368721 5368722 5368734 5368733 5368734 5368735 5368729 5368728 5368729 5368730 5368751 5368750 5368751 5368752 5368739 5368738 5368739 5368740 5368740 5368739 5368740 5368741 5368718 5368719 5368720 5368719 5368747 5368746 5368747 5368748 10737418 10737418 999999 0 5368745 5368744 5368745 5368746 
5368709 5368709 5368709 5368709 5368709 5368722 5368721 5368720 5368721 5368733 5368732 5368733 5368734 5368728 5368727 5368728 5368729 5368750 5368749 5368750 5368751 5368738 5368737 5368738 5368739 5368739 5368738 5368739 5368740 5368719 5368720 5368719 5368718 5368746 5368745 5368746 5368747 0 10737418 10737418 999999 5368744 5368743 5368744 5368745 
5368709 5368709 5368709 5368709 5368709 5368744 5368745 5368744 5368743 5368723 5368724 5368723 5368722 5368728 5368729 5368728 5368727 5368722 5368721 5368720 5368721 5368738 5368737 5368736 5368737 5368719 5368720 5368719 5368718 5368743 5368744 5368743 5368742 5368724 5368725 5368724 5368723 5368745 5368746 5368745 5368744 999999 0 10737418 10737418 
5368709 5368709 5368709 5368709 5368709 5368743 5368744 5368743 5368742 5368722 5368723 5368722 5368721 5368727 5368728 5368727 5368726 5368721 5368720 5368721 5368722 5368737 5368736 5368737 5368738 5368718 5368719 5368720 5368719 5368742 5368743 5368742 5368741 5368723 5368724 5368725 5368724 5368744 5368745 5368744 5368743 10737418 999999 0 10737418 
5368709 5368709 5368709 5368709 5368709 5368744 5368743 5368742 5368743 5368723 5368722 5368721 5368722 5368728 5368727 5368726 5368727 5368722 5368721 5368722 5368723 5368738 5368737 5368738 5368739 5368717 5368718 5368719 5368718 5368743 5368742 5368741 5368742 5368722 5368723 5368724 5368723 5368745 5368744 5368743 5368744 10737418 10737418 999999 0 
5368709 5368709 5368709 5368709 5368709 5368745 5368744 5368743 5368744 5368724 5368723 5368722 5368723 5368729 5368728 5368727 5368728 5368723 5368722 5368721 5368722 5368739 5368738 5368737 5368738 5368718 5368719 5368718 5368717 5368744 5368743 5368742 5368743 5368723 5368724 5368723 5368722 5368746 5368745 5368744 5368745 0 10737418 10737418 999999 
EOF
