RobustCbss/GLKH-1.1/TMP/mtspf.pid3343.tour
NAME : mtspf.pid3343.gtsp.80530722.tour
COMMENT : Length = 80530722
COMMENT : Found by LKH [Keld Helsgaun] Sat Mar  1 13:06:42 2025
TYPE : TOUR
DIMENSION : 45
TOUR_SECTION
1
15
16
17
14
10
11
12
13
27
28
29
26
34
35
36
37
3
2
9
6
7
8
38
39
40
41
33
30
31
32
5
21
18
19
20
42
43
44
45
4
25
22
23
24
-1
EOF
